computational_data/solutions/Reg3_n30_s0.sol
Optimal - objective value 14.00000000
      8 r_8                         1                       1
      9 r_9                         1                       1
     20 r_20                        1                       1
     21 r_21                        1                       1
     22 r_22                        1                       1
     27 r_27                        1                       1
     29 r_29                        1                       1
     30 b_0                         1                       1
     33 b_3                         1                       1
     35 b_5                         1                       1
     37 b_7                         1                       1
     42 b_12                        1                       1
     49 b_19                        1                       1
     53 b_23                        1                       1
